DIMACS_lns/graph-1000-887.col
p edge 1000 1853
e 1 490
e 1 9
e 1 173
e 1 716
e 1 896
e 2 213
e 2 227
e 2 151
e 2 803
e 2 40
e 2 289
e 2 996
e 4 840
e 4 408
e 4 233
e 5 543
e 5 934
e 5 286
e 5 380
e 5 688
e 5 875
e 6 469
e 6 840
e 6 295
e 7 34
e 7 367
e 7 318
e 7 875
e 8 135
e 8 333
e 8 582
e 8 309
e 8 982
e 8 246
e 8 729
e 9 803
e 9 430
e 9 370
e 9 351
e 9 507
e 10 809
e 10 384
e 10 98
e 10 427
e 11 790
e 11 258
e 11 620
e 11 389
e 13 658
e 13 967
e 13 252
e 13 247
e 14 62
e 14 267
e 14 633
e 14 668
e 16 353
e 16 287
e 16 1000
e 18 62
e 18 476
e 18 629
e 18 173
e 18 910
e 19 754
e 19 335
e 19 733
e 19 278
e 19 627
e 19 426
e 19 395
e 20 378
e 20 78
e 20 677
e 20 528
e 21 589
e 21 323
e 21 639
e 22 916
e 22 332
e 22 995
e 22 335
e 23 591
e 23 260
e 23 270
e 23 903
e 23 380
e 23 373
e 23 521
e 23 638
e 25 475
e 25 906
e 25 823
e 25 934
e 25 151
e 25 532
e 26 282
e 26 306
e 26 792
e 26 460
e 26 39
e 27 589
e 27 488
e 27 576
e 27 119
e 28 377
e 28 801
e 28 775
e 28 470
e 29 683
e 29 874
e 29 243
e 29 977
e 29 849
e 29 510
e 29 475
e 29 850
e 30 601
e 30 319
e 30 322
e 31 838
e 31 953
e 31 156
e 31 720
e 32 478
e 32 292
e 32 611
e 32 193
e 32 485
e 32 731
e 32 505
e 33 247
e 33 663
e 33 49
e 34 154
e 34 450
e 34 508
e 34 596
e 34 475
e 34 945
e 35 518
e 35 346
e 35 669
e 35 812
e 35 320
e 35 524
e 39 160
e 39 434
e 39 661
e 39 820
e 39 717
e 39 367
e 39 362
e 40 833
e 40 453
e 40 235
e 41 128
e 41 468
e 41 348
e 41 624
e 41 930
e 41 968
e 43 189
e 43 570
e 43 159
e 43 328
e 44 58
e 44 817
e 44 990
e 44 404
e 45 310
e 45 945
e 45 232
e 45 395
e 45 326
e 45 736
e 45 741
e 45 836
e 47 556
e 47 789
e 47 100
e 47 457
e 49 504
e 49 803
e 49 534
e 49 591
e 49 419
e 49 765
e 49 581
e 50 448
e 50 410
e 50 671
e 50 957
e 50 481
e 51 683
e 51 869
e 51 270
e 51 655
e 51 398
e 52 825
e 52 59
e 52 462
e 52 105
e 52 302
e 53 910
e 53 968
e 53 336
e 53 77
e 53 400
e 55 399
e 55 954
e 55 695
e 55 341
e 57 832
e 57 771
e 57 799
e 57 459
e 57 489
e 58 379
e 58 606
e 58 620
e 58 875
e 58 933
e 59 953
e 59 287
e 59 222
e 60 117
e 60 938
e 60 242
e 61 784
e 61 248
e 61 159
e 61 75
e 61 448
e 62 766
e 62 1000
e 62 513
e 62 969
e 62 454
e 62 469
e 63 805
e 63 813
e 63 654
e 63 106
e 63 217
e 64 98
e 64 830
e 64 407
e 64 194
e 66 626
e 66 625
e 66 159
e 66 221
e 67 694
e 67 407
e 67 453
e 67 430
e 69 944
e 69 835
e 69 336
e 71 677
e 71 734
e 71 850
e 71 153
e 72 503
e 72 91
e 72 565
e 72 370
e 72 671
e 72 576
e 72 995
e 72 210
e 72 918
e 73 500
e 73 603
e 73 985
e 73 217
e 73 466
e 74 766
e 74 182
e 74 211
e 74 868
e 74 827
e 75 663
e 75 502
e 77 967
e 77 944
e 78 681
e 78 857
e 78 407
e 80 468
e 80 528
e 80 716
e 80 659
e 80 868
e 80 166
e 80 250
e 82 428
e 82 482
e 82 565
e 82 261
e 82 581
e 82 88
e 82 850
e 82 929
e 82 557
e 82 252
e 82 859
e 83 516
e 83 746
e 83 923
e 83 133
e 83 270
e 85 970
e 85 628
e 85 460
e 86 999
e 86 567
e 86 513
e 86 941
e 86 386
e 86 592
e 87 346
e 87 312
e 87 974
e 87 361
e 87 688
e 88 506
e 88 225
e 89 320
e 89 556
e 89 169
e 90 521
e 90 315
e 90 990
e 91 905
e 91 310
e 91 248
e 94 801
e 94 252
e 94 505
e 98 1000
e 98 911
e 98 294
e 98 312
e 100 294
e 100 645
e 100 811
e 100 847
e 100 967
e 101 653
e 101 479
e 101 855
e 102 514
e 102 992
e 102 321
e 103 356
e 103 151
e 103 160
e 103 125
e 103 284
e 103 754
e 104 794
e 104 985
e 104 694
e 104 849
e 105 144
e 105 224
e 105 782
e 105 401
e 106 429
e 106 390
e 106 574
e 106 738
e 106 163
e 106 772
e 107 400
e 107 263
e 107 606
e 107 553
e 107 429
e 109 480
e 109 405
e 109 261
e 110 985
e 110 459
e 110 169
e 110 345
e 110 819
e 110 765
e 110 664
e 110 718
e 110 557
e 111 838
e 111 918
e 111 408
e 112 836
e 112 332
e 112 447
e 112 575
e 113 745
e 113 218
e 113 228
e 114 579
e 114 676
e 114 740
e 115 366
e 115 543
e 115 686
e 116 456
e 116 371
e 116 517
e 116 398
e 117 301
e 117 575
e 117 493
e 117 404
e 118 157
e 118 449
e 118 141
e 118 655
e 118 469
e 119 870
e 119 286
e 119 594
e 121 712
e 121 322
e 121 967
e 121 821
e 121 375
e 122 818
e 122 946
e 122 190
e 122 671
e 122 715
e 122 176
e 122 938
e 122 369
e 124 683
e 124 570
e 124 988
e 124 312
e 125 471
e 125 591
e 125 785
e 126 582
e 126 361
e 126 455
e 127 529
e 127 274
e 127 489
e 127 876
e 127 417
e 127 986
e 127 399
e 128 658
e 128 869
e 128 221
e 128 759
e 128 1000
e 128 797
e 128 520
e 128 136
e 129 459
e 129 826
e 129 471
e 129 664
e 131 176
e 131 391
e 131 883
e 131 887
e 131 333
e 132 715
e 132 500
e 132 608
e 132 457
e 133 262
e 133 190
e 133 150
e 133 609
e 133 560
e 133 503
e 133 802
e 135 278
e 135 642
e 136 775
e 136 865
e 136 343
e 136 805
e 137 557
e 137 204
e 137 270
e 138 333
e 138 789
e 138 806
e 139 974
e 139 380
e 139 704
e 139 696
e 139 151
e 139 918
e 141 876
e 141 626
e 141 208
e 142 298
e 142 719
e 142 784
e 142 546
e 143 933
e 143 857
e 143 287
e 143 808
e 143 530
e 143 717
e 143 367
e 144 305
e 144 329
e 144 266
e 144 732
e 144 285
e 144 810
e 146 447
e 146 578
e 146 460
e 146 996
e 146 430
e 146 440
e 146 617
e 147 646
e 147 434
e 147 944
e 148 630
e 148 438
e 148 312
e 149 745
e 149 160
e 149 855
e 149 978
e 149 794
e 150 625
e 150 839
e 150 203
e 150 187
e 150 419
e 151 380
e 151 396
e 151 221
e 151 941
e 151 362
e 152 431
e 152 870
e 152 190
e 153 249
e 153 216
e 153 233
e 153 769
e 153 180
e 154 746
e 154 332
e 154 204
e 155 446
e 155 552
e 155 508
e 155 359
e 155 916
e 155 979
e 155 545
e 156 638
e 156 446
e 156 303
e 157 371
e 157 456
e 157 500
e 157 792
e 157 840
e 158 425
e 158 176
e 158 609
e 159 436
e 160 266
e 160 744
e 160 550
e 160 201
e 161 490
e 161 507
e 161 239
e 161 236
e 161 831
e 161 484
e 162 384
e 162 261
e 162 817
e 163 824
e 163 565
e 166 389
e 166 809
e 168 398
e 168 242
e 168 378
e 169 321
e 170 445
e 170 892
e 170 741
e 172 553
e 172 978
e 172 574
e 172 655
e 173 971
e 173 210
e 173 550
e 174 189
e 174 492
e 174 421
e 174 880
e 174 883
e 174 227
e 176 839
e 176 645
e 176 629
e 176 1000
e 176 919
e 178 843
e 178 436
e 178 864
e 178 217
e 178 426
e 179 695
e 179 645
e 179 333
e 179 354
e 180 971
e 180 457
e 180 324
e 180 842
e 180 546
e 181 452
e 181 474
e 181 358
e 181 809
e 182 965
e 182 524
e 182 245
e 183 363
e 183 919
e 183 985
e 184 241
e 184 923
e 184 318
e 184 273
e 185 967
e 185 800
e 185 859
e 185 873
e 186 193
e 186 928
e 186 286
e 186 637
e 187 428
e 187 222
e 187 343
e 188 233
e 188 401
e 188 823
e 188 482
e 189 710
e 189 945
e 189 658
e 189 341
e 189 560
e 189 759
e 189 880
e 190 329
e 190 311
e 191 213
e 191 566
e 191 838
e 191 227
e 192 761
e 192 769
e 192 291
e 193 775
e 193 387
e 193 307
e 193 519
e 194 946
e 194 271
e 194 211
e 194 443
e 198 717
e 198 813
e 198 410
e 201 203
e 201 919
e 202 630
e 202 744
e 202 874
e 202 284
e 203 343
e 203 686
e 203 244
e 204 249
e 204 638
e 206 630
e 206 593
e 206 732
e 206 581
e 208 556
e 208 626
e 209 704
e 209 890
e 209 957
e 209 802
e 209 705
e 210 478
e 210 899
e 210 457
e 211 524
e 211 688
e 211 461
e 213 976
e 215 732
e 215 411
e 215 449
e 216 995
e 216 645
e 216 852
e 216 268
e 216 380
e 216 720
e 216 958
e 217 497
e 217 403
e 218 226
e 218 299
e 218 673
e 220 381
e 220 967
e 220 323
e 221 801
e 221 752
e 221 539
e 221 817
e 222 447
e 223 369
e 223 668
e 223 474
e 223 437
e 223 696
e 224 576
e 224 919
e 224 313
e 224 764
e 224 809
e 224 482
e 225 495
e 225 493
e 225 513
e 225 945
e 225 549
e 226 450
e 226 593
e 226 980
e 226 319
e 226 336
e 227 842
e 227 532
e 227 298
e 227 300
e 227 407
e 227 982
e 227 277
e 227 865
e 227 466
e 228 829
e 228 407
e 228 655
e 228 836
e 228 539
e 228 451
e 232 979
e 232 669
e 232 609
e 233 981
e 234 591
e 234 942
e 234 380
e 235 517
e 235 913
e 236 486
e 236 752
e 236 941
e 236 579
e 236 499
e 237 744
e 237 787
e 237 411
e 239 272
e 239 942
e 239 967
e 239 591
e 241 737
e 241 949
e 241 985
e 241 688
e 241 387
e 241 988
e 242 427
e 242 268
e 243 893
e 243 429
e 244 934
e 244 366
e 244 629
e 245 856
e 245 802
e 245 992
e 245 484
e 246 792
e 246 826
e 247 471
e 247 625
e 247 531
e 247 871
e 247 322
e 247 778
e 248 386
e 248 357
e 248 874
e 248 765
e 248 978
e 249 797
e 249 363
e 249 592
e 250 451
e 250 686
e 250 543
e 250 416
e 250 560
e 250 778
e 251 726
e 251 596
e 251 723
e 251 481
e 252 640
e 252 447
e 252 952
e 252 806
e 252 865
e 252 682
e 252 263
e 256 911
e 256 654
e 256 310
e 258 431
e 258 506
e 258 520
e 258 725
e 258 963
e 259 896
e 259 976
e 259 450
e 260 298
e 260 863
e 261 971
e 261 489
e 262 411
e 262 530
e 262 285
e 262 857
e 263 713
e 263 682
e 263 361
e 263 925
e 265 488
e 265 400
e 265 421
e 265 440
e 265 595
e 265 820
e 266 716
e 266 852
e 266 976
e 266 484
e 266 591
e 267 693
e 267 855
e 267 348
e 268 974
e 268 567
e 268 806
e 268 685
e 270 552
e 271 380
e 271 375
e 271 313
e 271 536
e 271 492
e 272 433
e 272 788
e 272 372
e 273 654
e 273 342
e 273 561
e 274 319
e 274 641
e 274 497
e 275 443
e 275 704
e 275 924
e 276 281
e 276 558
e 276 974
e 276 422
e 276 873
e 277 534
e 277 442
e 277 735
e 277 938
e 278 401
e 278 966
e 280 631
e 280 977
e 280 765
e 280 978
e 280 565
e 281 476
e 281 925
e 281 864
e 282 329
e 282 370
e 284 896
e 284 745
e 284 617
e 284 986
e 284 293
e 285 335
e 285 420
e 285 924
e 286 830
e 287 543
e 287 809
e 287 492
e 288 824
e 288 613
e 288 626
e 288 913
e 288 444
e 289 935
e 289 443
e 289 363
e 289 471
e 289 981
e 291 915
e 291 799
e 291 808
e 291 763
e 291 962
e 291 940
e 292 407
e 292 579
e 292 668
e 293 470
e 293 597
e 293 366
e 294 619
e 294 330
e 295 637
e 295 381
e 296 711
e 296 931
e 296 575
e 298 404
e 298 561
e 298 788
e 298 799
e 299 419
e 299 391
e 299 562
e 299 558
e 299 512
e 299 673
e 299 356
e 299 354
e 300 373
e 300 310
e 300 358
e 301 471
e 301 946
e 301 759
e 301 896
e 302 515
e 302 658
e 302 786
e 303 787
e 303 519
e 304 835
e 304 324
e 304 983
e 304 359
e 304 408
e 305 591
e 305 759
e 305 736
e 306 870
e 306 512
e 306 546
e 306 320
e 306 659
e 307 787
e 307 478
e 307 605
e 308 352
e 308 381
e 308 898
e 308 601
e 308 833
e 308 713
e 308 449
e 309 502
e 309 983
e 310 509
e 310 985
e 310 813
e 310 486
e 311 401
e 311 704
e 312 965
e 312 608
e 313 910
e 313 687
e 315 403
e 315 422
e 316 469
e 316 806
e 316 820
e 318 713
e 320 426
e 321 387
e 321 829
e 322 657
e 322 957
e 323 504
e 323 704
e 323 774
e 324 754
e 324 822
e 324 445
e 325 967
e 325 403
e 325 424
e 325 942
e 325 764
e 326 945
e 326 349
e 327 601
e 327 658
e 327 986
e 327 603
e 328 613
e 328 940
e 329 979
e 329 480
e 329 784
e 329 892
e 329 605
e 330 745
e 330 1000
e 330 914
e 330 942
e 332 515
e 335 866
e 335 436
e 335 962
e 336 683
e 336 813
e 337 421
e 337 924
e 337 864
e 338 839
e 338 518
e 338 561
e 338 345
e 338 947
e 338 669
e 338 377
e 339 411
e 339 589
e 339 480
e 339 582
e 339 731
e 339 370
e 339 457
e 339 578
e 341 759
e 341 843
e 341 686
e 341 556
e 342 381
e 342 386
e 342 562
e 342 958
e 342 422
e 343 444
e 343 359
e 343 724
e 343 891
e 344 660
e 344 851
e 344 349
e 344 632
e 345 914
e 345 556
e 345 929
e 346 792
e 346 914
e 346 882
e 348 478
e 349 910
e 349 366
e 349 632
e 349 427
e 349 873
e 350 733
e 350 771
e 350 576
e 351 474
e 351 404
e 351 352
e 352 583
e 353 737
e 353 765
e 353 506
e 353 576
e 354 462
e 354 995
e 354 980
e 354 445
e 355 369
e 355 999
e 355 609
e 355 868
e 356 640
e 356 949
e 356 792
e 357 628
e 357 605
e 358 786
e 358 738
e 358 685
e 358 812
e 359 636
e 361 763
e 361 810
e 362 735
e 362 621
e 363 820
e 365 745
e 365 863
e 365 854
e 365 738
e 366 951
e 366 746
e 366 603
e 367 843
e 367 766
e 367 778
e 367 611
e 369 808
e 370 946
e 370 593
e 370 787
e 370 825
e 371 669
e 371 534
e 371 657
e 372 694
e 372 664
e 373 832
e 373 789
e 373 754
e 375 474
e 375 946
e 377 992
e 377 594
e 378 884
e 378 577
e 379 431
e 379 833
e 380 868
e 380 475
e 380 865
e 381 703
e 381 1000
e 381 802
e 384 417
e 384 727
e 386 716
e 386 528
e 386 726
e 387 443
e 387 951
e 387 488
e 389 550
e 389 641
e 389 741
e 389 605
e 390 668
e 390 427
e 390 794
e 390 396
e 391 957
e 392 983
e 392 901
e 392 439
e 392 437
e 393 549
e 393 882
e 393 919
e 393 403
e 393 899
e 393 690
e 395 851
e 395 784
e 396 766
e 399 775
e 399 862
e 399 560
e 401 819
e 401 873
e 401 935
e 402 620
e 402 811
e 402 667
e 403 627
e 404 816
e 404 655
e 404 648
e 405 710
e 405 431
e 407 543
e 407 660
e 407 767
e 407 501
e 408 581
e 408 526
e 409 729
e 409 445
e 409 981
e 409 974
e 410 797
e 410 597
e 410 931
e 411 440
e 411 577
e 413 705
e 413 609
e 413 678
e 413 999
e 413 512
e 415 456
e 415 988
e 415 628
e 416 946
e 416 696
e 417 827
e 417 506
e 418 604
e 418 486
e 418 898
e 419 733
e 420 977
e 420 774
e 420 864
e 420 618
e 421 1000
e 421 531
e 421 744
e 422 610
e 422 567
e 422 776
e 423 852
e 423 487
e 423 810
e 423 582
e 424 864
e 424 653
e 425 803
e 425 577
e 426 432
e 426 819
e 426 685
e 426 570
e 428 767
e 428 574
e 428 974
e 428 991
e 428 992
e 428 778
e 429 933
e 429 969
e 429 761
e 430 925
e 430 723
e 430 933
e 431 504
e 431 766
e 432 980
e 432 898
e 432 966
e 433 889
e 433 828
e 433 694
e 434 646
e 436 985
e 436 818
e 437 524
e 437 835
e 437 598
e 438 880
e 438 536
e 438 700
e 439 470
e 439 849
e 440 984
e 440 487
e 442 712
e 442 633
e 443 939
e 444 583
e 444 883
e 445 779
e 445 753
e 445 740
e 445 689
e 445 782
e 446 517
e 446 691
e 447 825
e 447 761
e 448 667
e 448 664
e 448 826
e 449 985
e 450 835
e 450 910
e 451 546
e 451 576
e 452 718
e 452 564
e 453 591
e 453 962
e 453 874
e 453 964
e 453 838
e 453 673
e 453 468
e 454 968
e 454 577
e 455 776
e 455 481
e 455 597
e 456 603
e 456 693
e 456 931
e 459 638
e 460 722
e 460 610
e 460 862
e 461 813
e 461 608
e 462 822
e 462 694
e 464 594
e 464 596
e 464 776
e 464 949
e 466 661
e 468 834
e 468 763
e 469 671
e 470 668
e 470 628
e 470 901
e 471 687
e 471 934
e 474 566
e 474 579
e 474 887
e 475 862
e 476 653
e 476 765
e 478 524
e 478 712
e 478 824
e 478 931
e 479 569
e 479 587
e 480 775
e 481 695
e 481 993
e 481 703
e 482 875
e 482 863
e 483 600
e 483 830
e 483 629
e 484 903
e 485 660
e 485 863
e 485 628
e 487 668
e 487 529
e 488 895
e 488 763
e 488 968
e 488 829
e 488 591
e 490 984
e 490 583
e 492 604
e 492 871
e 493 913
e 493 624
e 495 891
e 495 740
e 497 957
e 499 869
e 499 966
e 499 597
e 499 963
e 500 726
e 501 526
e 501 625
e 501 631
e 501 806
e 502 774
e 503 604
e 503 690
e 504 812
e 505 734
e 505 903
e 506 691
e 507 823
e 507 512
e 508 569
e 508 988
e 509 766
e 509 610
e 509 782
e 509 855
e 510 976
e 510 561
e 510 827
e 510 998
e 512 905
e 513 954
e 513 638
e 513 648
e 514 815
e 514 984
e 514 775
e 514 569
e 514 974
e 515 915
e 516 763
e 516 897
e 517 605
e 517 818
e 517 740
e 517 546
e 518 716
e 518 912
e 519 891
e 519 995
e 519 818
e 520 530
e 520 871
e 521 977
e 521 523
e 521 875
e 521 862
e 521 549
e 522 884
e 522 950
e 522 823
e 523 889
e 523 769
e 523 827
e 524 677
e 524 722
e 526 930
e 526 817
e 528 812
e 528 577
e 528 759
e 528 722
e 529 574
e 530 543
e 530 983
e 530 924
e 531 931
e 531 616
e 532 789
e 534 669
e 536 695
e 536 574
e 539 939
e 539 991
e 540 682
e 540 731
e 540 552
e 543 951
e 545 625
e 545 595
e 545 560
e 549 854
e 549 656
e 549 648
e 550 939
e 550 735
e 552 744
e 553 734
e 553 713
e 553 785
e 556 598
e 556 711
e 556 629
e 557 594
e 558 816
e 558 624
e 558 806
e 558 863
e 560 785
e 560 767
e 561 621
e 562 988
e 562 876
e 562 855
e 564 753
e 564 794
e 565 944
e 565 619
e 565 681
e 566 717
e 566 812
e 567 677
e 567 875
e 569 633
e 569 850
e 569 889
e 574 617
e 575 803
e 575 906
e 576 883
e 577 929
e 578 839
e 578 582
e 578 950
e 578 897
e 579 968
e 579 595
e 579 779
e 581 805
e 583 940
e 587 941
e 587 759
e 587 944
e 587 645
e 589 616
e 589 736
e 592 732
e 593 722
e 593 944
e 594 700
e 595 897
e 595 737
e 595 843
e 596 718
e 596 912
e 597 838
e 597 655
e 597 661
e 598 788
e 598 982
e 598 676
e 598 700
e 600 924
e 600 637
e 600 778
e 600 821
e 601 696
e 601 823
e 601 639
e 603 791
e 603 876
e 604 903
e 604 709
e 604 954
e 605 895
e 606 971
e 609 865
e 609 772
e 610 721
e 610 640
e 611 733
e 613 653
e 616 673
e 616 668
e 616 931
e 616 977
e 617 647
e 617 974
e 617 723
e 618 998
e 618 947
e 619 789
e 619 932
e 619 735
e 620 722
e 621 726
e 621 849
e 624 836
e 624 669
e 625 896
e 625 677
e 626 752
e 627 868
e 628 847
e 629 724
e 630 690
e 630 986
e 630 716
e 631 882
e 632 941
e 633 771
e 633 785
e 636 648
e 636 786
e 637 752
e 638 813
e 639 903
e 639 821
e 640 668
e 640 832
e 641 700
e 642 813
e 642 779
e 643 729
e 643 1000
e 643 667
e 643 971
e 646 774
e 647 817
e 647 982
e 647 891
e 648 980
e 648 892
e 648 710
e 653 856
e 656 906
e 656 893
e 657 759
e 657 729
e 657 980
e 658 910
e 659 903
e 660 932
e 661 668
e 661 758
e 661 914
e 661 992
e 663 899
e 663 928
e 666 671
e 666 914
e 666 770
e 667 855
e 669 710
e 669 820
e 669 810
e 671 719
e 673 852
e 676 724
e 677 941
e 678 847
e 678 999
e 681 998
e 681 703
e 682 758
e 682 723
e 682 976
e 683 761
e 685 926
e 685 974
e 686 887
e 687 970
e 688 691
e 689 910
e 689 876
e 690 796
e 693 725
e 693 696
e 694 870
e 694 937
e 695 863
e 696 892
e 700 864
e 703 744
e 704 741
e 705 933
e 709 851
e 709 897
e 711 829
e 711 735
e 711 815
e 712 806
e 712 905
e 712 801
e 713 966
e 715 718
e 716 921
e 717 890
e 718 874
e 719 831
e 720 852
e 720 744
e 721 842
e 721 840
e 721 928
e 724 784
e 724 774
e 725 870
e 725 971
e 725 825
e 727 926
e 727 827
e 727 916
e 729 766
e 729 899
e 731 918
e 733 834
e 733 849
e 734 788
e 734 866
e 735 865
e 735 897
e 736 738
e 736 898
e 737 993
e 738 911
e 738 799
e 740 764
e 741 905
e 744 796
e 746 884
e 746 991
e 752 923
e 753 915
e 754 880
e 758 912
e 759 967
e 759 813
e 759 868
e 761 779
e 767 838
e 767 945
e 769 953
e 769 983
e 770 792
e 770 866
e 771 962
e 772 950
e 774 966
e 774 796
e 775 779
e 776 821
e 779 937
e 784 949
e 785 958
e 786 891
e 786 965
e 787 802
e 789 892
e 790 925
e 790 864
e 790 953
e 791 942
e 791 822
e 791 808
e 792 953
e 792 957
e 794 996
e 796 963
e 796 892
e 799 963
e 799 884
e 800 830
e 800 951
e 801 947
e 802 921
e 808 830
e 810 932
e 811 952
e 811 986
e 811 926
e 812 855
e 815 905
e 815 958
e 816 852
e 816 838
e 817 941
e 820 897
e 821 979
e 821 993
e 825 842
e 826 942
e 827 935
e 828 830
e 828 979
e 831 940
e 833 937
e 834 957
e 834 945
e 835 988
e 835 970
e 836 990
e 847 926
e 847 974
e 849 932
e 852 964
e 854 953
e 854 945
e 856 978
e 859 921
e 865 898
e 865 998
e 869 983
e 871 933
e 874 952
e 874 891
e 882 906
e 884 890
e 889 929
e 893 964
e 895 971
e 901 977
e 905 979
e 914 969
e 925 983
e 930 986
e 932 995
e 940 1000
e 980 999
