txt_Ins/graph-1000-887.txt
n 1000
e 0 489
e 0 8
e 0 172
e 0 715
e 0 895
e 1 212
e 1 226
e 1 150
e 1 802
e 1 39
e 1 288
e 1 995
e 3 839
e 3 407
e 3 232
e 4 542
e 4 933
e 4 285
e 4 379
e 4 687
e 4 874
e 5 468
e 5 839
e 5 294
e 6 33
e 6 366
e 6 317
e 6 874
e 7 134
e 7 332
e 7 581
e 7 308
e 7 981
e 7 245
e 7 728
e 8 802
e 8 429
e 8 369
e 8 350
e 8 506
e 9 808
e 9 383
e 9 97
e 9 426
e 10 789
e 10 257
e 10 619
e 10 388
e 12 657
e 12 966
e 12 251
e 12 246
e 13 61
e 13 266
e 13 632
e 13 667
e 15 352
e 15 286
e 15 999
e 17 61
e 17 475
e 17 628
e 17 172
e 17 909
e 18 753
e 18 334
e 18 732
e 18 277
e 18 626
e 18 425
e 18 394
e 19 377
e 19 77
e 19 676
e 19 527
e 20 588
e 20 322
e 20 638
e 21 915
e 21 331
e 21 994
e 21 334
e 22 590
e 22 259
e 22 269
e 22 902
e 22 379
e 22 372
e 22 520
e 22 637
e 24 474
e 24 905
e 24 822
e 24 933
e 24 150
e 24 531
e 25 281
e 25 305
e 25 791
e 25 459
e 25 38
e 26 588
e 26 487
e 26 575
e 26 118
e 27 376
e 27 800
e 27 774
e 27 469
e 28 682
e 28 873
e 28 242
e 28 976
e 28 848
e 28 509
e 28 474
e 28 849
e 29 600
e 29 318
e 29 321
e 30 837
e 30 952
e 30 155
e 30 719
e 31 477
e 31 291
e 31 610
e 31 192
e 31 484
e 31 730
e 31 504
e 32 246
e 32 662
e 32 48
e 33 153
e 33 449
e 33 507
e 33 595
e 33 474
e 33 944
e 34 517
e 34 345
e 34 668
e 34 811
e 34 319
e 34 523
e 38 159
e 38 433
e 38 660
e 38 819
e 38 716
e 38 366
e 38 361
e 39 832
e 39 452
e 39 234
e 40 127
e 40 467
e 40 347
e 40 623
e 40 929
e 40 967
e 42 188
e 42 569
e 42 158
e 42 327
e 43 57
e 43 816
e 43 989
e 43 403
e 44 309
e 44 944
e 44 231
e 44 394
e 44 325
e 44 735
e 44 740
e 44 835
e 46 555
e 46 788
e 46 99
e 46 456
e 48 503
e 48 802
e 48 533
e 48 590
e 48 418
e 48 764
e 48 580
e 49 447
e 49 409
e 49 670
e 49 956
e 49 480
e 50 682
e 50 868
e 50 269
e 50 654
e 50 397
e 51 824
e 51 58
e 51 461
e 51 104
e 51 301
e 52 909
e 52 967
e 52 335
e 52 76
e 52 399
e 54 398
e 54 953
e 54 694
e 54 340
e 56 831
e 56 770
e 56 798
e 56 458
e 56 488
e 57 378
e 57 605
e 57 619
e 57 874
e 57 932
e 58 952
e 58 286
e 58 221
e 59 116
e 59 937
e 59 241
e 60 783
e 60 247
e 60 158
e 60 74
e 60 447
e 61 765
e 61 999
e 61 512
e 61 968
e 61 453
e 61 468
e 62 804
e 62 812
e 62 653
e 62 105
e 62 216
e 63 97
e 63 829
e 63 406
e 63 193
e 65 625
e 65 624
e 65 158
e 65 220
e 66 693
e 66 406
e 66 452
e 66 429
e 68 943
e 68 834
e 68 335
e 70 676
e 70 733
e 70 849
e 70 152
e 71 502
e 71 90
e 71 564
e 71 369
e 71 670
e 71 575
e 71 994
e 71 209
e 71 917
e 72 499
e 72 602
e 72 984
e 72 216
e 72 465
e 73 765
e 73 181
e 73 210
e 73 867
e 73 826
e 74 662
e 74 501
e 76 966
e 76 943
e 77 680
e 77 856
e 77 406
e 79 467
e 79 527
e 79 715
e 79 658
e 79 867
e 79 165
e 79 249
e 81 427
e 81 481
e 81 564
e 81 260
e 81 580
e 81 87
e 81 849
e 81 928
e 81 556
e 81 251
e 81 858
e 82 515
e 82 745
e 82 922
e 82 132
e 82 269
e 84 969
e 84 627
e 84 459
e 85 998
e 85 566
e 85 512
e 85 940
e 85 385
e 85 591
e 86 345
e 86 311
e 86 973
e 86 360
e 86 687
e 87 505
e 87 224
e 88 319
e 88 555
e 88 168
e 89 520
e 89 314
e 89 989
e 90 904
e 90 309
e 90 247
e 93 800
e 93 251
e 93 504
e 97 999
e 97 910
e 97 293
e 97 311
e 99 293
e 99 644
e 99 810
e 99 846
e 99 966
e 100 652
e 100 478
e 100 854
e 101 513
e 101 991
e 101 320
e 102 355
e 102 150
e 102 159
e 102 124
e 102 283
e 102 753
e 103 793
e 103 984
e 103 693
e 103 848
e 104 143
e 104 223
e 104 781
e 104 400
e 105 428
e 105 389
e 105 573
e 105 737
e 105 162
e 105 771
e 106 399
e 106 262
e 106 605
e 106 552
e 106 428
e 108 479
e 108 404
e 108 260
e 109 984
e 109 458
e 109 168
e 109 344
e 109 818
e 109 764
e 109 663
e 109 717
e 109 556
e 110 837
e 110 917
e 110 407
e 111 835
e 111 331
e 111 446
e 111 574
e 112 744
e 112 217
e 112 227
e 113 578
e 113 675
e 113 739
e 114 365
e 114 542
e 114 685
e 115 455
e 115 370
e 115 516
e 115 397
e 116 300
e 116 574
e 116 492
e 116 403
e 117 156
e 117 448
e 117 140
e 117 654
e 117 468
e 118 869
e 118 285
e 118 593
e 120 711
e 120 321
e 120 966
e 120 820
e 120 374
e 121 817
e 121 945
e 121 189
e 121 670
e 121 714
e 121 175
e 121 937
e 121 368
e 123 682
e 123 569
e 123 987
e 123 311
e 124 470
e 124 590
e 124 784
e 125 581
e 125 360
e 125 454
e 126 528
e 126 273
e 126 488
e 126 875
e 126 416
e 126 985
e 126 398
e 127 657
e 127 868
e 127 220
e 127 758
e 127 999
e 127 796
e 127 519
e 127 135
e 128 458
e 128 825
e 128 470
e 128 663
e 130 175
e 130 390
e 130 882
e 130 886
e 130 332
e 131 714
e 131 499
e 131 607
e 131 456
e 132 261
e 132 189
e 132 149
e 132 608
e 132 559
e 132 502
e 132 801
e 134 277
e 134 641
e 135 774
e 135 864
e 135 342
e 135 804
e 136 556
e 136 203
e 136 269
e 137 332
e 137 788
e 137 805
e 138 973
e 138 379
e 138 703
e 138 695
e 138 150
e 138 917
e 140 875
e 140 625
e 140 207
e 141 297
e 141 718
e 141 783
e 141 545
e 142 932
e 142 856
e 142 286
e 142 807
e 142 529
e 142 716
e 142 366
e 143 304
e 143 328
e 143 265
e 143 731
e 143 284
e 143 809
e 145 446
e 145 577
e 145 459
e 145 995
e 145 429
e 145 439
e 145 616
e 146 645
e 146 433
e 146 943
e 147 629
e 147 437
e 147 311
e 148 744
e 148 159
e 148 854
e 148 977
e 148 793
e 149 624
e 149 838
e 149 202
e 149 186
e 149 418
e 150 379
e 150 395
e 150 220
e 150 940
e 150 361
e 151 430
e 151 869
e 151 189
e 152 248
e 152 215
e 152 232
e 152 768
e 152 179
e 153 745
e 153 331
e 153 203
e 154 445
e 154 551
e 154 507
e 154 358
e 154 915
e 154 978
e 154 544
e 155 637
e 155 445
e 155 302
e 156 370
e 156 455
e 156 499
e 156 791
e 156 839
e 157 424
e 157 175
e 157 608
e 158 435
e 159 265
e 159 743
e 159 549
e 159 200
e 160 489
e 160 506
e 160 238
e 160 235
e 160 830
e 160 483
e 161 383
e 161 260
e 161 816
e 162 823
e 162 564
e 165 388
e 165 808
e 167 397
e 167 241
e 167 377
e 168 320
e 169 444
e 169 891
e 169 740
e 171 552
e 171 977
e 171 573
e 171 654
e 172 970
e 172 209
e 172 549
e 173 188
e 173 491
e 173 420
e 173 879
e 173 882
e 173 226
e 175 838
e 175 644
e 175 628
e 175 999
e 175 918
e 177 842
e 177 435
e 177 863
e 177 216
e 177 425
e 178 694
e 178 644
e 178 332
e 178 353
e 179 970
e 179 456
e 179 323
e 179 841
e 179 545
e 180 451
e 180 473
e 180 357
e 180 808
e 181 964
e 181 523
e 181 244
e 182 362
e 182 918
e 182 984
e 183 240
e 183 922
e 183 317
e 183 272
e 184 966
e 184 799
e 184 858
e 184 872
e 185 192
e 185 927
e 185 285
e 185 636
e 186 427
e 186 221
e 186 342
e 187 232
e 187 400
e 187 822
e 187 481
e 188 709
e 188 944
e 188 657
e 188 340
e 188 559
e 188 758
e 188 879
e 189 328
e 189 310
e 190 212
e 190 565
e 190 837
e 190 226
e 191 760
e 191 768
e 191 290
e 192 774
e 192 386
e 192 306
e 192 518
e 193 945
e 193 270
e 193 210
e 193 442
e 197 716
e 197 812
e 197 409
e 200 202
e 200 918
e 201 629
e 201 743
e 201 873
e 201 283
e 202 342
e 202 685
e 202 243
e 203 248
e 203 637
e 205 629
e 205 592
e 205 731
e 205 580
e 207 555
e 207 625
e 208 703
e 208 889
e 208 956
e 208 801
e 208 704
e 209 477
e 209 898
e 209 456
e 210 523
e 210 687
e 210 460
e 212 975
e 214 731
e 214 410
e 214 448
e 215 994
e 215 644
e 215 851
e 215 267
e 215 379
e 215 719
e 215 957
e 216 496
e 216 402
e 217 225
e 217 298
e 217 672
e 219 380
e 219 966
e 219 322
e 220 800
e 220 751
e 220 538
e 220 816
e 221 446
e 222 368
e 222 667
e 222 473
e 222 436
e 222 695
e 223 575
e 223 918
e 223 312
e 223 763
e 223 808
e 223 481
e 224 494
e 224 492
e 224 512
e 224 944
e 224 548
e 225 449
e 225 592
e 225 979
e 225 318
e 225 335
e 226 841
e 226 531
e 226 297
e 226 299
e 226 406
e 226 981
e 226 276
e 226 864
e 226 465
e 227 828
e 227 406
e 227 654
e 227 835
e 227 538
e 227 450
e 231 978
e 231 668
e 231 608
e 232 980
e 233 590
e 233 941
e 233 379
e 234 516
e 234 912
e 235 485
e 235 751
e 235 940
e 235 578
e 235 498
e 236 743
e 236 786
e 236 410
e 238 271
e 238 941
e 238 966
e 238 590
e 240 736
e 240 948
e 240 984
e 240 687
e 240 386
e 240 987
e 241 426
e 241 267
e 242 892
e 242 428
e 243 933
e 243 365
e 243 628
e 244 855
e 244 801
e 244 991
e 244 483
e 245 791
e 245 825
e 246 470
e 246 624
e 246 530
e 246 870
e 246 321
e 246 777
e 247 385
e 247 356
e 247 873
e 247 764
e 247 977
e 248 796
e 248 362
e 248 591
e 249 450
e 249 685
e 249 542
e 249 415
e 249 559
e 249 777
e 250 725
e 250 595
e 250 722
e 250 480
e 251 639
e 251 446
e 251 951
e 251 805
e 251 864
e 251 681
e 251 262
e 255 910
e 255 653
e 255 309
e 257 430
e 257 505
e 257 519
e 257 724
e 257 962
e 258 895
e 258 975
e 258 449
e 259 297
e 259 862
e 260 970
e 260 488
e 261 410
e 261 529
e 261 284
e 261 856
e 262 712
e 262 681
e 262 360
e 262 924
e 264 487
e 264 399
e 264 420
e 264 439
e 264 594
e 264 819
e 265 715
e 265 851
e 265 975
e 265 483
e 265 590
e 266 692
e 266 854
e 266 347
e 267 973
e 267 566
e 267 805
e 267 684
e 269 551
e 270 379
e 270 374
e 270 312
e 270 535
e 270 491
e 271 432
e 271 787
e 271 371
e 272 653
e 272 341
e 272 560
e 273 318
e 273 640
e 273 496
e 274 442
e 274 703
e 274 923
e 275 280
e 275 557
e 275 973
e 275 421
e 275 872
e 276 533
e 276 441
e 276 734
e 276 937
e 277 400
e 277 965
e 279 630
e 279 976
e 279 764
e 279 977
e 279 564
e 280 475
e 280 924
e 280 863
e 281 328
e 281 369
e 283 895
e 283 744
e 283 616
e 283 985
e 283 292
e 284 334
e 284 419
e 284 923
e 285 829
e 286 542
e 286 808
e 286 491
e 287 823
e 287 612
e 287 625
e 287 912
e 287 443
e 288 934
e 288 442
e 288 362
e 288 470
e 288 980
e 290 914
e 290 798
e 290 807
e 290 762
e 290 961
e 290 939
e 291 406
e 291 578
e 291 667
e 292 469
e 292 596
e 292 365
e 293 618
e 293 329
e 294 636
e 294 380
e 295 710
e 295 930
e 295 574
e 297 403
e 297 560
e 297 787
e 297 798
e 298 418
e 298 390
e 298 561
e 298 557
e 298 511
e 298 672
e 298 355
e 298 353
e 299 372
e 299 309
e 299 357
e 300 470
e 300 945
e 300 758
e 300 895
e 301 514
e 301 657
e 301 785
e 302 786
e 302 518
e 303 834
e 303 323
e 303 982
e 303 358
e 303 407
e 304 590
e 304 758
e 304 735
e 305 869
e 305 511
e 305 545
e 305 319
e 305 658
e 306 786
e 306 477
e 306 604
e 307 351
e 307 380
e 307 897
e 307 600
e 307 832
e 307 712
e 307 448
e 308 501
e 308 982
e 309 508
e 309 984
e 309 812
e 309 485
e 310 400
e 310 703
e 311 964
e 311 607
e 312 909
e 312 686
e 314 402
e 314 421
e 315 468
e 315 805
e 315 819
e 317 712
e 319 425
e 320 386
e 320 828
e 321 656
e 321 956
e 322 503
e 322 703
e 322 773
e 323 753
e 323 821
e 323 444
e 324 966
e 324 402
e 324 423
e 324 941
e 324 763
e 325 944
e 325 348
e 326 600
e 326 657
e 326 985
e 326 602
e 327 612
e 327 939
e 328 978
e 328 479
e 328 783
e 328 891
e 328 604
e 329 744
e 329 999
e 329 913
e 329 941
e 331 514
e 334 865
e 334 435
e 334 961
e 335 682
e 335 812
e 336 420
e 336 923
e 336 863
e 337 838
e 337 517
e 337 560
e 337 344
e 337 946
e 337 668
e 337 376
e 338 410
e 338 588
e 338 479
e 338 581
e 338 730
e 338 369
e 338 456
e 338 577
e 340 758
e 340 842
e 340 685
e 340 555
e 341 380
e 341 385
e 341 561
e 341 957
e 341 421
e 342 443
e 342 358
e 342 723
e 342 890
e 343 659
e 343 850
e 343 348
e 343 631
e 344 913
e 344 555
e 344 928
e 345 791
e 345 913
e 345 881
e 347 477
e 348 909
e 348 365
e 348 631
e 348 426
e 348 872
e 349 732
e 349 770
e 349 575
e 350 473
e 350 403
e 350 351
e 351 582
e 352 736
e 352 764
e 352 505
e 352 575
e 353 461
e 353 994
e 353 979
e 353 444
e 354 368
e 354 998
e 354 608
e 354 867
e 355 639
e 355 948
e 355 791
e 356 627
e 356 604
e 357 785
e 357 737
e 357 684
e 357 811
e 358 635
e 360 762
e 360 809
e 361 734
e 361 620
e 362 819
e 364 744
e 364 862
e 364 853
e 364 737
e 365 950
e 365 745
e 365 602
e 366 842
e 366 765
e 366 777
e 366 610
e 368 807
e 369 945
e 369 592
e 369 786
e 369 824
e 370 668
e 370 533
e 370 656
e 371 693
e 371 663
e 372 831
e 372 788
e 372 753
e 374 473
e 374 945
e 376 991
e 376 593
e 377 883
e 377 576
e 378 430
e 378 832
e 379 867
e 379 474
e 379 864
e 380 702
e 380 999
e 380 801
e 383 416
e 383 726
e 385 715
e 385 527
e 385 725
e 386 442
e 386 950
e 386 487
e 388 549
e 388 640
e 388 740
e 388 604
e 389 667
e 389 426
e 389 793
e 389 395
e 390 956
e 391 982
e 391 900
e 391 438
e 391 436
e 392 548
e 392 881
e 392 918
e 392 402
e 392 898
e 392 689
e 394 850
e 394 783
e 395 765
e 398 774
e 398 861
e 398 559
e 400 818
e 400 872
e 400 934
e 401 619
e 401 810
e 401 666
e 402 626
e 403 815
e 403 654
e 403 647
e 404 709
e 404 430
e 406 542
e 406 659
e 406 766
e 406 500
e 407 580
e 407 525
e 408 728
e 408 444
e 408 980
e 408 973
e 409 796
e 409 596
e 409 930
e 410 439
e 410 576
e 412 704
e 412 608
e 412 677
e 412 998
e 412 511
e 414 455
e 414 987
e 414 627
e 415 945
e 415 695
e 416 826
e 416 505
e 417 603
e 417 485
e 417 897
e 418 732
e 419 976
e 419 773
e 419 863
e 419 617
e 420 999
e 420 530
e 420 743
e 421 609
e 421 566
e 421 775
e 422 851
e 422 486
e 422 809
e 422 581
e 423 863
e 423 652
e 424 802
e 424 576
e 425 431
e 425 818
e 425 684
e 425 569
e 427 766
e 427 573
e 427 973
e 427 990
e 427 991
e 427 777
e 428 932
e 428 968
e 428 760
e 429 924
e 429 722
e 429 932
e 430 503
e 430 765
e 431 979
e 431 897
e 431 965
e 432 888
e 432 827
e 432 693
e 433 645
e 435 984
e 435 817
e 436 523
e 436 834
e 436 597
e 437 879
e 437 535
e 437 699
e 438 469
e 438 848
e 439 983
e 439 486
e 441 711
e 441 632
e 442 938
e 443 582
e 443 882
e 444 778
e 444 752
e 444 739
e 444 688
e 444 781
e 445 516
e 445 690
e 446 824
e 446 760
e 447 666
e 447 663
e 447 825
e 448 984
e 449 834
e 449 909
e 450 545
e 450 575
e 451 717
e 451 563
e 452 590
e 452 961
e 452 873
e 452 963
e 452 837
e 452 672
e 452 467
e 453 967
e 453 576
e 454 775
e 454 480
e 454 596
e 455 602
e 455 692
e 455 930
e 458 637
e 459 721
e 459 609
e 459 861
e 460 812
e 460 607
e 461 821
e 461 693
e 463 593
e 463 595
e 463 775
e 463 948
e 465 660
e 467 833
e 467 762
e 468 670
e 469 667
e 469 627
e 469 900
e 470 686
e 470 933
e 473 565
e 473 578
e 473 886
e 474 861
e 475 652
e 475 764
e 477 523
e 477 711
e 477 823
e 477 930
e 478 568
e 478 586
e 479 774
e 480 694
e 480 992
e 480 702
e 481 874
e 481 862
e 482 599
e 482 829
e 482 628
e 483 902
e 484 659
e 484 862
e 484 627
e 486 667
e 486 528
e 487 894
e 487 762
e 487 967
e 487 828
e 487 590
e 489 983
e 489 582
e 491 603
e 491 870
e 492 912
e 492 623
e 494 890
e 494 739
e 496 956
e 498 868
e 498 965
e 498 596
e 498 962
e 499 725
e 500 525
e 500 624
e 500 630
e 500 805
e 501 773
e 502 603
e 502 689
e 503 811
e 504 733
e 504 902
e 505 690
e 506 822
e 506 511
e 507 568
e 507 987
e 508 765
e 508 609
e 508 781
e 508 854
e 509 975
e 509 560
e 509 826
e 509 997
e 511 904
e 512 953
e 512 637
e 512 647
e 513 814
e 513 983
e 513 774
e 513 568
e 513 973
e 514 914
e 515 762
e 515 896
e 516 604
e 516 817
e 516 739
e 516 545
e 517 715
e 517 911
e 518 890
e 518 994
e 518 817
e 519 529
e 519 870
e 520 976
e 520 522
e 520 874
e 520 861
e 520 548
e 521 883
e 521 949
e 521 822
e 522 888
e 522 768
e 522 826
e 523 676
e 523 721
e 525 929
e 525 816
e 527 811
e 527 576
e 527 758
e 527 721
e 528 573
e 529 542
e 529 982
e 529 923
e 530 930
e 530 615
e 531 788
e 533 668
e 535 694
e 535 573
e 538 938
e 538 990
e 539 681
e 539 730
e 539 551
e 542 950
e 544 624
e 544 594
e 544 559
e 548 853
e 548 655
e 548 647
e 549 938
e 549 734
e 551 743
e 552 733
e 552 712
e 552 784
e 555 597
e 555 710
e 555 628
e 556 593
e 557 815
e 557 623
e 557 805
e 557 862
e 559 784
e 559 766
e 560 620
e 561 987
e 561 875
e 561 854
e 563 752
e 563 793
e 564 943
e 564 618
e 564 680
e 565 716
e 565 811
e 566 676
e 566 874
e 568 632
e 568 849
e 568 888
e 573 616
e 574 802
e 574 905
e 575 882
e 576 928
e 577 838
e 577 581
e 577 949
e 577 896
e 578 967
e 578 594
e 578 778
e 580 804
e 582 939
e 586 940
e 586 758
e 586 943
e 586 644
e 588 615
e 588 735
e 591 731
e 592 721
e 592 943
e 593 699
e 594 896
e 594 736
e 594 842
e 595 717
e 595 911
e 596 837
e 596 654
e 596 660
e 597 787
e 597 981
e 597 675
e 597 699
e 599 923
e 599 636
e 599 777
e 599 820
e 600 695
e 600 822
e 600 638
e 602 790
e 602 875
e 603 902
e 603 708
e 603 953
e 604 894
e 605 970
e 608 864
e 608 771
e 609 720
e 609 639
e 610 732
e 612 652
e 615 672
e 615 667
e 615 930
e 615 976
e 616 646
e 616 973
e 616 722
e 617 997
e 617 946
e 618 788
e 618 931
e 618 734
e 619 721
e 620 725
e 620 848
e 623 835
e 623 668
e 624 895
e 624 676
e 625 751
e 626 867
e 627 846
e 628 723
e 629 689
e 629 985
e 629 715
e 630 881
e 631 940
e 632 770
e 632 784
e 635 647
e 635 785
e 636 751
e 637 812
e 638 902
e 638 820
e 639 667
e 639 831
e 640 699
e 641 812
e 641 778
e 642 728
e 642 999
e 642 666
e 642 970
e 645 773
e 646 816
e 646 981
e 646 890
e 647 979
e 647 891
e 647 709
e 652 855
e 655 905
e 655 892
e 656 758
e 656 728
e 656 979
e 657 909
e 658 902
e 659 931
e 660 667
e 660 757
e 660 913
e 660 991
e 662 898
e 662 927
e 665 670
e 665 913
e 665 769
e 666 854
e 668 709
e 668 819
e 668 809
e 670 718
e 672 851
e 675 723
e 676 940
e 677 846
e 677 998
e 680 997
e 680 702
e 681 757
e 681 722
e 681 975
e 682 760
e 684 925
e 684 973
e 685 886
e 686 969
e 687 690
e 688 909
e 688 875
e 689 795
e 692 724
e 692 695
e 693 869
e 693 936
e 694 862
e 695 891
e 699 863
e 702 743
e 703 740
e 704 932
e 708 850
e 708 896
e 710 828
e 710 734
e 710 814
e 711 805
e 711 904
e 711 800
e 712 965
e 714 717
e 715 920
e 716 889
e 717 873
e 718 830
e 719 851
e 719 743
e 720 841
e 720 839
e 720 927
e 723 783
e 723 773
e 724 869
e 724 970
e 724 824
e 726 925
e 726 826
e 726 915
e 728 765
e 728 898
e 730 917
e 732 833
e 732 848
e 733 787
e 733 865
e 734 864
e 734 896
e 735 737
e 735 897
e 736 992
e 737 910
e 737 798
e 739 763
e 740 904
e 743 795
e 745 883
e 745 990
e 751 922
e 752 914
e 753 879
e 757 911
e 758 966
e 758 812
e 758 867
e 760 778
e 766 837
e 766 944
e 768 952
e 768 982
e 769 791
e 769 865
e 770 961
e 771 949
e 773 965
e 773 795
e 774 778
e 775 820
e 778 936
e 783 948
e 784 957
e 785 890
e 785 964
e 786 801
e 788 891
e 789 924
e 789 863
e 789 952
e 790 941
e 790 821
e 790 807
e 791 952
e 791 956
e 793 995
e 795 962
e 795 891
e 798 962
e 798 883
e 799 829
e 799 950
e 800 946
e 801 920
e 807 829
e 809 931
e 810 951
e 810 985
e 810 925
e 811 854
e 814 904
e 814 957
e 815 851
e 815 837
e 816 940
e 819 896
e 820 978
e 820 992
e 824 841
e 825 941
e 826 934
e 827 829
e 827 978
e 830 939
e 832 936
e 833 956
e 833 944
e 834 987
e 834 969
e 835 989
e 846 925
e 846 973
e 848 931
e 851 963
e 853 952
e 853 944
e 855 977
e 858 920
e 864 897
e 864 997
e 868 982
e 870 932
e 873 951
e 873 890
e 881 905
e 883 889
e 888 928
e 892 963
e 894 970
e 900 976
e 904 978
e 913 968
e 924 982
e 929 985
e 931 994
e 939 999
e 979 998
